Set parameter TSPort to value 51199
Set parameter TokenServer to value "open-license1.lanl.gov"
Set parameter TimeLimit to value 4096
Set parameter Threads to value 1
Gurobi Optimizer version 10.0.3 build v10.0.3rc0 (linux64)

CPU model: Intel(R) Xeon(R) CPU E5-2695 v4 @ 2.10GHz, instruction set [SSE2|AVX|AVX2]
Thread count: 36 physical cores, 72 logical processors, using up to 1 threads

Optimize a model with 0 rows, 1940 columns and 0 nonzeros
Model fingerprint: 0xdf049a5c
Model has 8869 quadratic objective terms
Variable types: 0 continuous, 1940 integer (1940 binary)
Coefficient statistics:
  Matrix range     [0e+00, 0e+00]
  Objective range  [2e+00, 3e+01]
  QObjective range [8e+00, 8e+00]
  Bounds range     [1e+00, 1e+00]
  RHS range        [0e+00, 0e+00]
Found heuristic solution: objective 0.0000000
Found heuristic solution: objective -3310.000000
Found heuristic solution: objective -11972.00000
Found heuristic solution: objective -12012.00000
Presolve removed 0 rows and 3 columns
Presolve time: 0.39s
Presolved: 8866 rows, 10803 columns, 26598 nonzeros
Variable types: 0 continuous, 10803 integer (10803 binary)

Root relaxation: objective -1.666700e+04, 2700 iterations, 0.06 seconds (0.02 work units)

    Nodes    |    Current Node    |     Objective Bounds      |     Work
 Expl Unexpl |  Obj  Depth IntInf | Incumbent    BestBd   Gap | It/Node Time

     0     0 -16667.000    0 1937 -12012.000 -16667.000  38.8%     -    0s
     0     0 -15525.000    0 2510 -12012.000 -15525.000  29.2%     -    1s
     0     0 -15391.000    0 2580 -12012.000 -15391.000  28.1%     -    1s
     0     0 -15386.000    0 2585 -12012.000 -15386.000  28.1%     -    1s
     0     0 -15095.750    0 2791 -12012.000 -15095.750  25.7%     -    2s
     0     0 -15095.750    0 2762 -12012.000 -15095.750  25.7%     -    2s
     0     2 -15095.750    0 2758 -12012.000 -15095.750  25.7%     -    3s
   110   112 -14612.750   55 3210 -12012.000 -15087.417  25.6%   124    5s
   453   455 -13357.500  227 3756 -12012.000 -15087.417  25.6%  90.1   10s
   759   761 -12540.000  381 3715 -12012.000 -15087.417  25.6%  78.5   15s
  1045  1020 -14748.750   40 4433 -12012.000 -15086.083  25.6%  69.2   21s
  1050  1023 -12650.000  351 3405 -12012.000 -14403.667  19.9%  68.9   25s
  1060  1030 -12455.000  396 3770 -12012.000 -14113.787  17.5%  68.3   37s
  1061  1031 -13527.500  202 4172 -12012.000 -14052.910  17.0%  68.2   45s
  1062  1031 -12303.000  428 4340 -12012.000 -14032.791  16.8%  68.1   51s
  1063  1032 -14025.732   31 4441 -12012.000 -14025.732  16.8%  68.1   55s
  1073  1039 -12879.000  305 5001 -12012.000 -13787.188  14.8%  67.4   93s
  1074  1039 -13203.667  251 5250 -12012.000 -13752.024  14.5%  67.4  117s
  1075  1040 -12433.000  401 5357 -12012.000 -13742.164  14.4%  67.3  128s
  1076  1041 -13659.500  180 5460 -12012.000 -13740.179  14.4%  67.2  130s
  1078  1042 -13396.500  221 5443 -12012.000 -13737.970  14.4%  67.1  135s
  1085  1047 -13128.000  266 6068 -12012.000 -13567.890  13.0%  66.7  195s
  1086  1047 -12161.000  468 6454 -12012.000 -13530.838  12.6%  66.6  237s
  1087  1048 -13523.315  163 6447 -12012.000 -13523.315  12.6%  66.6  250s
  1088  1049 -13520.232   78 6578 -12012.000 -13520.232  12.6%  66.5  257s
  1089  1049 -12541.000  381 6627 -12012.000 -13518.650  12.5%  66.4  262s
  1090  1050 -13349.500  229 6669 -12012.000 -13517.921  12.5%  66.4  265s
  1094  1053 -12254.000  443 6720 -12012.000 -13517.387  12.5%  66.1  270s
  1097  1055 -12076.500  495 7186 -12012.000 -13405.443  11.6%  66.0  348s
  1098  1055 -12252.000  444 7400 -12012.000 -13380.855  11.4%  65.9  391s
  1099  1056 -12073.500  496 7427 -12012.000 -13375.029  11.3%  65.8  408s
  1100  1057 -12459.000  394 7581 -12012.000 -13373.132  11.3%  65.8  415s
  1101  1057 -13371.767  160 7588 -12012.000 -13371.767  11.3%  65.7  421s
  1102  1058 -13371.266  183 7572 -12012.000 -13371.266  11.3%  65.7  425s
  1108  1062 -13371.023   28 7726 -12012.000 -13371.023  11.3%  65.3  431s
  1109  1063 -12915.000  300 8081 -12012.000 -13283.430  10.6%  65.2  518s
  1110  1063 -13266.125  127 8437 -12012.000 -13266.125  10.4%  65.2  572s
  1111  1064 -12472.000  392 8486 -12012.000 -13262.322  10.4%  65.1  594s
  1112  1065 -13260.673   87 8594 -12012.000 -13260.673  10.4%  65.1  604s
  1113  1065 -12075.500  495 8633 -12012.000 -13260.082  10.4%  65.0  610s
  1114  1066 -12691.000  343 8660 -12012.000 -13259.391  10.4%  65.0  616s
  1117  1068 -12592.000  364 8710 -12012.000 -13259.219  10.4%  64.8  620s
  1120  1070 -12459.000  394 8716 -12012.000 -13215.743  10.0%  64.6  697s
  1121  1071 -12384.000  413 8889 -12012.000 -13207.161  9.95%  64.5  736s
  1122  1071 -13205.454  191 8903 -12012.000 -13205.454  9.94%  64.5  748s
  1123  1072 -13129.500  267 8927 -12012.000 -13205.001  9.93%  64.4  753s
  1124  1073 -13204.814  191 8939 -12012.000 -13204.814  9.93%  64.4  756s
  1127  1075 -13204.714  209 8975 -12012.000 -13204.714  9.93%  64.2  760s
  1130  1077 -12509.000  387 8881 -12012.000 -13170.227  9.64%  64.0  841s
  1131  1077 -13163.058  168 9028 -12012.000 -13163.058  9.58%  64.0  883s
  1132  1078 -13161.667   17 9030 -12012.000 -13161.667  9.57%  63.9  899s
  1133  1079 -13161.063  193 9095 -12012.000 -13161.063  9.57%  63.9  906s
  1134  1079 -13160.831  146 9121 -12012.000 -13160.831  9.56%  63.8  910s
  1138  1082 -13160.755   99 9160 -12012.000 -13160.755  9.56%  63.6  915s
  1139  1083 -13134.374   48 9081 -12012.000 -13134.374  9.34%  63.5  982s
  1140  1083 -12658.000  350 9165 -12012.000 -13129.768  9.31%  63.5 1012s
  1141  1084 -13128.908  110 9211 -12012.000 -13128.908  9.30%  63.4 1022s
  1142  1085 -13128.666   56 9203 -12012.000 -13128.666  9.30%  63.4 1026s
  1144  1086 -12226.000  452 9240 -12012.000 -13128.550  9.30%  63.3 1030s
  1148  1089 -13106.234  230 9158 -12012.000 -13106.234  9.11%  63.0 1103s
  1149  1089 -12306.000  427 9253 -12012.000 -13101.677  9.07%  63.0 1133s
  1150  1090 -12650.000  351 9276 -12012.000 -13100.804  9.06%  62.9 1143s
  1151  1091 -12054.000  501 9307 -12012.000 -13100.459  9.06%  62.9 1148s
  1152  1091 -12636.000  353 9312 -12012.000 -13100.339  9.06%  62.8 1150s
  1156  1094 -13086.513    5 9229 -12012.000 -13086.513  8.95%  62.6 1211s
  1157  1095 -12026.000  510 9326 -12012.000 -13083.299  8.92%  62.5 1239s
  1158  1095 -12650.000  351 9354 -12012.000 -13082.863  8.91%  62.5 1246s
  1159  1096 -13082.693   27 9370 -12012.000 -13082.693  8.91%  62.4 1250s
  1163  1099 -13070.236   31 9335 -12012.000 -13070.236  8.81%  62.2 1309s
  1164  1099 -12213.000  454 9360 -12012.000 -13068.091  8.79%  62.2 1329s
  1165  1100 -13067.579  146 9406 -12012.000 -13067.579  8.79%  62.1 1336s
  1166  1101 -13067.462  200 9434 -12012.000 -13067.462  8.79%  62.1 1340s
  1170  1103 -12362.000  417 9306 -12012.000 -13054.281  8.68%  61.8 1404s
  1171  1104 -13051.172  245 9401 -12012.000 -13051.172  8.65%  61.8 1431s
  1172  1105 -12969.000  291 9417 -12012.000 -13050.592  8.65%  61.7 1439s
  1173  1105 -12879.000  305 9443 -12012.000 -13050.422  8.64%  61.7 1442s
  1175  1107 -12433.000  401 9470 -12012.000 -13050.340  8.64%  61.6 1446s
  1178  1109 -13040.352  221 9409 -12012.000 -13040.352  8.56%  61.4 1504s
  1179  1109 -13037.761  107 9430 -12012.000 -13037.761  8.54%  61.4 1528s
  1180  1110 -13037.338  236 9442 -12012.000 -13037.338  8.54%  61.3 1535s
  1182  1111 -13037.164  213 9495 -12012.000 -13037.164  8.53%  61.2 1540s
  1186  1114 -12161.000  468 9435 -12012.000 -13029.321  8.47%  61.0 1593s
  1187  1115 -13027.585  163 9509 -12012.000 -13027.585  8.45%  61.0 1611s
  1188  1115 -13027.264   78 9513 -12012.000 -13027.264  8.45%  60.9 1618s
  1189  1116 -12541.000  381 9529 -12012.000 -13027.198  8.45%  60.9 1620s
  1193  1119 -12047.000  503 9467 -12012.000 -13018.770  8.38%  60.7 1672s
  1194  1119 -12254.000  443 9530 -12012.000 -13016.505  8.36%  60.6 1694s
  1195  1120 -13016.073  182 9566 -12012.000 -13016.073  8.36%  60.6 1701s
  1196  1121 -13015.979    4 9590 -12012.000 -13015.979  8.36%  60.5 1705s
  1199  1123 -12073.500  496 9613 -12012.000 -13015.873  8.36%  60.3 1710s
  1201  1124 -13010.054  160 9499 -12012.000 -13010.054  8.31%  60.2 1755s
  1202  1125 -13008.575  183 9533 -12012.000 -13008.575  8.30%  60.2 1775s
  1203  1125 -12632.000  354 9571 -12012.000 -13008.188  8.29%  60.1 1784s
  1204  1126 -13008.053  116 9596 -12012.000 -13008.053  8.29%  60.1 1788s
  1205  1127 -13008.011   61 9594 -12012.000 -13008.011  8.29%  60.0 1790s
  1209  1129 -12915.000  300 9507 -12012.000 -13002.987  8.25%  59.9 1833s
  1210  1130 -13001.385  127 9600 -12012.000 -13001.385  8.24%  59.8 1851s
  1211  1131 -12472.000  392 9634 -12012.000 -13001.092  8.23%  59.8 1857s
  1212  1131 -13001.022   87 9648 -12012.000 -13001.022  8.23%  59.7 1860s
  1216  1134 -12650.000  351 9505 -12012.000 -12995.719  8.19%  59.5 1904s
  1217  1135 -12592.000  364 9600 -12012.000 -12994.473  8.18%  59.5 1920s
  1218  1135 -12994.202   96 9648 -12012.000 -12994.202  8.18%  59.4 1925s
  1220  1137 -12459.000  394 9670 -12012.000 -12994.091  8.18%  59.3 1931s
  1232  1146 -12994.080   17 4433 -12012.000 -12994.080  8.18%  1284 1935s
  1237  1149 -12775.500  323 4558 -12012.000 -12994.080  8.18%  1279 1957s
  1238  1150 -12994.080   99 6300 -12012.000 -12994.080  8.18%  1278 2024s
  1239  1151 -12994.080   48 7962 -12012.000 -12994.080  8.18%  1277 2136s
  1240  1151 -12658.000  350 9218 -12012.000 -12994.080  8.18%  1276 2287s
  1241  1152 -12994.080  110 9396 -12012.000 -12994.080  8.18%  1275 2381s
  1242  1153 -12994.080   56 9502 -12012.000 -12994.080  8.18%  1274 2419s
  1243  1153 -12994.080  120 9558 -12012.000 -12994.080  8.18%  1273 2435s
  1244  1154 -12226.000  452 9598 -12012.000 -12994.080  8.18%  1272 2443s
  1245  1155 -12994.080   40 9619 -12012.000 -12994.080  8.18%  1271 2447s
  1247  1156 -12948.000  295 9641 -12012.000 -12994.080  8.18%  1269 2451s
  1251  1159 -12054.000  501 9600 -12012.000 -12981.245  8.07%  1264 2528s
  1252  1159 -12636.000  353 9631 -12012.000 -12980.020  8.06%  1263 2547s
  1253  1160 -12979.822  112 9639 -12012.000 -12979.822  8.06%  1262 2552s
  1255  1161 -12163.000  469 9642 -12012.000 -12979.777  8.06%  1260 2555s
  1258  1163 -12650.000  351 9597 -12012.000 -12969.119  7.97%  1257 2624s
  1259  1164 -12967.130   27 9650 -12012.000 -12967.130  7.95%  1256 2649s
  1260  1165 -12455.000  396 9676 -12012.000 -12966.849  7.95%  1255 2655s
  1262  1166 -12303.000  428 9707 -12012.000 -12966.728  7.95%  1253 2660s
  1265  1168 -12960.033  146 9669 -12012.000 -12960.033  7.89%  1250 2716s
  1266  1169 -12958.505  200 9744 -12012.000 -12958.505  7.88%  1249 2739s
  1267  1169 -12958.232  261 9757 -12012.000 -12958.232  7.88%  1248 2747s
  1269  1171 -12958.150  255 9774 -12012.000 -12958.150  7.88%  1247 2751s
  1271  1172 -12958.140  245 9778 -12012.000 -12958.140  7.88%  1245 2755s
  1272  1173 -12949.583  291 9707 -12012.000 -12949.583  7.81%  1244 2819s
  1273  1173 -12879.000  305 9783 -12012.000 -12947.979  7.79%  1243 2841s
  1274  1174 -12947.655  251 9776 -12012.000 -12947.655  7.79%  1242 2849s
  1275  1175 -12433.000  401 9797 -12012.000 -12947.575  7.79%  1241 2853s
  1276  1175 -12947.547  180 9807 -12012.000 -12947.547  7.79%  1240 2855s
  1279  1177 -12941.798  107 9757 -12012.000 -12941.798  7.74%  1237 2912s
  1280  1178 -12940.205  236 9773 -12012.000 -12940.205  7.73%  1236 2938s
  1281  1179 -12866.500  307 9800 -12012.000 -12939.920  7.72%  1235 2947s
  1282  1179 -12939.842  213 9823 -12012.000 -12939.842  7.72%  1234 2952s
  1285  1181 -12939.821  266 9850 -12012.000 -12939.821  7.72%  1231 2957s
  1286  1182 -12161.000  468 9807 -12012.000 -12934.719  7.68%  1230 3008s
  1287  1183 -12933.916  163 9840 -12012.000 -12933.916  7.67%  1229 3024s
  1288  1183 -12933.762   78 9877 -12012.000 -12933.762  7.67%  1228 3029s
  1289  1184 -12541.000  381 9887 -12012.000 -12933.722  7.67%  1227 3032s
  1291  1185 -12727.500  334 9888 -12012.000 -12933.711  7.67%  1225 3036s
  1292  1186 -12929.805  162 9838 -12012.000 -12929.805  7.64%  1224 3079s
  1293  1187 -12047.000  503 9865 -12012.000 -12929.004  7.63%  1223 3095s
  1294  1187 -12254.000  443 9889 -12012.000 -12928.825  7.63%  1222 3102s
  1295  1188 -12928.780  182 9921 -12012.000 -12928.780  7.63%  1222 3105s
  1299  1191 -12073.500  496 9936 -12012.000 -12928.740  7.63%  1218 3111s
  1300  1191 -12459.000  394 9867 -12012.000 -12924.329  7.60%  1217 3158s
  1301  1192 -12923.309  160 9898 -12012.000 -12923.309  7.59%  1216 3179s
  1302  1193 -12923.023  183 9921 -12012.000 -12923.023  7.58%  1215 3187s
  1303  1193 -12632.000  354 9947 -12012.000 -12922.963  7.58%  1214 3190s
  1306  1195 -12922.929  156 9962 -12012.000 -12922.929  7.58%  1211 3196s
  1307  1196 -12919.572  270 9914 -12012.000 -12919.572  7.56%  1210 3238s
  1308  1197 -12918.822   28 9929 -12012.000 -12918.822  7.55%  1209 3255s
  1309  1197 -12915.000  300 9960 -12012.000 -12918.664  7.55%  1208 3262s
  1311  1199 -12472.000  392 9988 -12012.000 -12918.629  7.55%  1207 3265s
  1313  1200 -12075.500  495 9901 -12012.000 -12915.547  7.52%  1205 3307s
  1314  1201 -12691.000  343 9912 -12012.000 -12914.803  7.52%  1204 3324s
  1315  1201 -12914.687  178 9968 -12012.000 -12914.687  7.51%  1203 3329s
  1316  1202 -12650.000  351 9968 -12012.000 -12914.614  7.51%  1202 3333s
  1317  1203 -12592.000  364 9974 -12012.000 -12914.593  7.51%  1201 3335s
  1319  1204 -12914.587   35 9978 -12012.000 -12914.587  7.51%  1199 3340s
  1320  1205 -12459.000  394 9900 -12012.000 -12910.964  7.48%  1198 3384s
  1321  1205 -12384.000  413 9933 -12012.000 -12910.300  7.48%  1197 3401s
  1322  1206 -12910.167  191 9953 -12012.000 -12910.167  7.48%  1197 3406s
  1324  1207 -12910.112  191 9979 -12012.000 -12910.112  7.48%  1195 3410s
  1326  1209 -12910.106  105 9987 -12012.000 -12910.106  7.48%  1193 3415s
  1327  1209 -12907.616  209 9938 -12012.000 -12907.616  7.46%  1192 3448s
  1328  1210 -12906.891   57 9976 -12012.000 -12906.891  7.45%  1191 3464s
  1329  1211 -12906.767  235 9993 -12012.000 -12906.767  7.45%  1190 3470s
  1333  1213 -12906.726  193 10024 -12012.000 -12906.726  7.45%  1187 3477s
  1334  1214 -12903.757  146 9923 -12012.000 -12903.757  7.42%  1186 3516s
  1335  1215 -12646.000  352 9987 -12012.000 -12903.121  7.42%  1185 3533s
  1336  1215 -12902.997   42 9999 -12012.000 -12902.997  7.42%  1184 3538s
  1337  1216 -12775.500  323 10004 -12012.000 -12902.951  7.42%  1183 3541s
  1340  1218 -12658.000  350 10033 -12012.000 -12902.929  7.42%  1180 3547s
  1341  1219 -12901.575  110 9976 -12012.000 -12901.575  7.41%  1180 3572s
  1342  1219 -12901.180   56 10019 -12012.000 -12901.180  7.40%  1179 3584s
  1343  1220 -12901.091  120 10020 -12012.000 -12901.091  7.40%  1178 3589s
  1344  1221 -12226.000  452 10034 -12012.000 -12901.067  7.40%  1177 3591s
  1347  1223 -12898.622  295 9996 -12012.000 -12898.622  7.38%  1174 3629s
  1348  1223 -12898.054  230 10030 -12012.000 -12898.054  7.38%  1173 3644s
  1349  1224 -12306.000  427 10032 -12012.000 -12897.915  7.38%  1173 3650s
  1352  1226 -12636.000  353 10059 -12012.000 -12897.845  7.37%  1170 3655s
  1354  1227 -12895.759  191 10000 -12012.000 -12895.759  7.36%  1168 3687s
  1355  1228 -12163.000  469 10008 -12012.000 -12895.209  7.35%  1167 3702s
  1356  1229 -12895.094    5 10050 -12012.000 -12895.094  7.35%  1167 3707s
  1357  1229 -12026.000  510 10062 -12012.000 -12895.060  7.35%  1166 3710s
  1360  1231 -12455.000  396 9997 -12012.000 -12892.709  7.33%  1163 3748s
  1361  1232 -12891.908  202 10027 -12012.000 -12891.908  7.33%  1162 3769s
  1362  1233 -12303.000  428 10030 -12012.000 -12891.713  7.32%  1161 3776s
  1364  1234 -12213.000  454 10071 -12012.000 -12891.656  7.32%  1160 3781s
  1367  1236 -12890.123  261 10023 -12012.000 -12890.123  7.31%  1157 3812s
  1368  1237 -12211.000  457 10066 -12012.000 -12889.549  7.31%  1156 3826s
  1369  1237 -12889.446  255 10088 -12012.000 -12889.446  7.30%  1155 3830s
  1373  1240 -12879.000  305 10106 -12012.000 -12889.407  7.30%  1152 3836s
  1374  1241 -12887.812  251 10032 -12012.000 -12887.812  7.29%  1151 3862s
  1375  1241 -12433.000  401 10053 -12012.000 -12887.310  7.29%  1150 3875s
  1376  1242 -12887.214  180 10081 -12012.000 -12887.214  7.29%  1150 3880s
  1379  1244 -12887.177  107 10099 -12012.000 -12887.177  7.29%  1147 3887s
  1380  1245 -12885.750  236 10042 -12012.000 -12885.750  7.27%  1146 3912s
  1381  1245 -12866.500  307 10081 -12012.000 -12885.327  7.27%  1145 3925s
  1383  1247 -12211.000  457 10108 -12012.000 -12885.251  7.27%  1144 3931s
  1385  1248 -12884.059  266 10043 -12012.000 -12884.059  7.26%  1142 3955s
  1386  1249 -12161.000  468 10079 -12012.000 -12883.734  7.26%  1141 3965s
  1388  1250 -12883.659   78 10104 -12012.000 -12883.659  7.26%  1140 3971s
  1391  1252 -12727.500  334 10042 -12012.000 -12881.879  7.24%  1137 4004s
  1392  1253 -12881.504  162 10083 -12012.000 -12881.504  7.24%  1136 4016s
  1393  1253 -12047.000  503 10107 -12012.000 -12881.399  7.24%  1136 4022s
  1395  1255 -12881.373  182 10122 -12012.000 -12881.373  7.24%  1134 4025s
  1398  1257 -12252.000  444 10038 -12012.000 -12879.437  7.22%  1132 4058s
  1399  1257 -12073.500  496 10091 -12012.000 -12878.955  7.22%  1131 4071s
  1400  1258 -12459.000  394 10114 -12012.000 -12878.880  7.22%  1130 4076s
  1402  1259 -12878.836  183 10128 -12012.000 -12878.836  7.22%  1128 4080s

Cutting planes:
  Gomory: 48
  MIR: 299
  Flow cover: 3966
  Zero half: 1327
  Mod-K: 30
  RLT: 379
  BQP: 627

Explored 1404 nodes (3152505 simplex iterations) in 4096.00 seconds (6147.49 work units)
Thread count was 1 (of 72 available processors)

Solution count 4: -12012 -11972 -3310 0 

Time limit reached
Best objective -1.201200000000e+04, best bound -1.287800000000e+04, gap 7.2095%

User-callback calls 25447, time in user-callback 0.11 sec

BQP_SOLUTION, 1940, 8869, -4214.000000, 4096.001328, 1, -1, -1, 1, 1, 1, -1, 1, 1, -1, -1, 1, -1, 1, -1, 1, 1, -1, -1, -1, -1, 1, -1, 1, -1, 1, 1, 1, -1, 1, -1, 1, -1, -1, -1, 1, 1, -1, 1, 1, -1, 1, -1, 1, 1, 1, 1, -1, 1, -1, -1, -1, 1, 1, 1, 1, -1, -1, 1, 1, -1, -1, -1, 1, 1, -1, 1, -1, 1, -1, -1, 1, 1, 1, 1, -1, -1, 1, 1, -1, 1, -1, 1, -1, -1, -1, 1, -1, -1, 1, 1, 1, 1, -1, -1, 1, 1, -1, -1, 1, -1, 1, -1, -1, 1, 1, -1, 1, -1, 1, -1, -1, 1, 1, 1, -1, 1, 1, 1, -1, -1, -1, 1, 1, -1, 1, -1, 1, -1, 1, -1, 1, 1, 1, 1, -1, 1, -1, -1, 1, 1, 1, -1, 1, -1, -1, 1, -1, -1, -1, 1, -1, 1, -1, 1, -1, -1, -1, -1, 1, -1, -1, -1, 1, 1, -1, -1, -1, 1, -1, -1, 1, -1, -1, -1, -1, -1, 1, -1, 1, 1, -1, 1, -1, -1, -1, 1, 1, -1, 1, -1, 1, 1, -1, -1, -1, -1, -1, 1, -1, 1, -1, -1, -1, 1, 1, -1, 1, -1, 1, -1, -1, -1, -1, -1, 1, -1, 1, -1, -1, -1, -1, 1, -1, -1, -1, -1, -1, -1, 1, -1, 1, -1, -1, -1, 1, -1, -1, 1, 1, -1, 1, 1, 1, 1, -1, -1, 1, -1, -1, -1, -1, 1, 1, -1, -1, 1, -1, -1, 1, 1, -1, 1, 1, -1, -1, 1, -1, -1, -1, -1, 1, -1, -1, 1, 1, -1, 1, 1, 1, 1, -1, 1, -1, 1, -1, -1, -1, 1, 1, 1, -1, 1, -1, 1, -1, 1, -1, 1, -1, 1, 1, -1, 1, -1, -1, 1, 1, -1, 1, 1, -1, -1, -1, 1, 1, -1, 1, 1, 1, -1, 1, -1, -1, 1, -1, 1, 1, -1, -1, -1, -1, 1, 1, 1, -1, 1, -1, 1, -1, -1, 1, 1, 1, 1, 1, -1, 1, -1, 1, 1, 1, -1, 1, -1, 1, 1, -1, -1, -1, 1, -1, 1, 1, -1, 1, 1, 1, 1, 1, -1, 1, 1, 1, 1, -1, -1, -1, 1, 1, 1, 1, 1, -1, -1, 1, -1, 1, 1, 1, 1, -1, 1, -1, -1, -1, 1, 1, 1, 1, -1, -1, 1, -1, -1, 1, 1, 1, 1, 1, 1, -1, 1, -1, -1, -1, 1, 1, 1, -1, 1, 1, 1, -1, -1, -1, 1, 1, 1, -1, 1, -1, 1, -1, 1, 1, 1, -1, -1, -1, -1, 1, -1, 1, 1, 1, 1, -1, 1, -1, 1, 1, 1, 1, -1, 1, 1, 1, -1, 1, -1, 1, 1, 1, -1, 1, 1, -1, 1, -1, 1, 1, 1, 1, 1, 1, -1, 1, -1, 1, 1, 1, -1, 1, -1, 1, -1, -1, 1, 1, 1, -1, 1, 1, 1, 1, -1, 1, 1, -1, -1, 1, -1, -1, -1, -1, 1, 1, -1, 1, 1, -1, -1, 1, -1, -1, 1, 1, -1, 1, 1, 1, -1, 1, -1, 1, -1, 1, -1, 1, -1, -1, 1, 1, 1, -1, -1, 1, -1, -1, 1, -1, 1, 1, -1, -1, 1, -1, -1, 1, -1, 1, -1, 1, -1, -1, 1, -1, -1, -1, 1, -1, -1, -1, -1, 1, 1, -1, -1, 1, -1, 1, -1, -1, -1, 1, 1, -1, 1, -1, 1, -1, 1, -1, 1, -1, -1, -1, 1, -1, 1, -1, -1, 1, -1, 1, -1, -1, -1, 1, -1, -1, -1, 1, -1, -1, -1, -1, 1, -1, -1, 1, -1, -1, -1, -1, -1, -1, 1, -1, 1, -1, -1, -1, -1, -1, 1, -1, -1, 1, 1, 1, -1, -1, 1, -1, -1, -1, 1, 1, 1, -1, -1, 1, -1, 1, -1, 1, 1, -1, -1, -1, -1, -1, -1, 1, 1, 1, -1, -1, -1, -1, 1, -1, -1, -1, 1, -1, 1, 1, 1, -1, -1, -1, 1, 1, -1, -1, 1, -1, 1, -1, 1, 1, 1, 1, -1, 1, -1, -1, -1, -1, 1, -1, -1, -1, 1, -1, -1, -1, 1, -1, -1, 1, -1, -1, 1, -1, 1, 1, 1, -1, 1, -1, 1, -1, -1, -1, -1, 1, -1, 1, -1, 1, 1, -1, -1, 1, 1, 1, 1, -1, -1, 1, -1, -1, 1, 1, -1, 1, -1, 1, 1, 1, -1, 1, 1, -1, 1, 1, 1, 1, 1, -1, 1, 1, 1, 1, -1, 1, -1, -1, 1, -1, -1, 1, 1, 1, 1, -1, 1, -1, -1, -1, 1, 1, 1, 1, -1, 1, -1, -1, 1, 1, 1, 1, 1, -1, 1, -1, -1, -1, 1, 1, -1, 1, -1, -1, 1, 1, -1, 1, 1, 1, 1, -1, 1, -1, -1, -1, 1, 1, 1, 1, -1, 1, -1, -1, 1, 1, 1, -1, 1, 1, -1, 1, -1, -1, 1, 1, 1, -1, 1, -1, 1, -1, -1, 1, 1, 1, 1, 1, -1, -1, -1, -1, -1, 1, -1, -1, 1, 1, 1, -1, 1, -1, 1, 1, 1, 1, -1, -1, -1, -1, 1, 1, -1, 1, -1, 1, -1, -1, 1, 1, 1, 1, 1, 1, -1, -1, -1, 1, 1, 1, 1, -1, -1, 1, -1, 1, -1, 1, -1, 1, 1, 1, -1, 1, 1, 1, 1, -1, 1, 1, 1, -1, -1, -1, 1, 1, 1, -1, 1, 1, -1, 1, -1, 1, 1, -1, 1, -1, 1, -1, -1, -1, 1, 1, -1, 1, -1, 1, -1, 1, -1, 1, 1, 1, 1, -1, -1, -1, -1, 1, -1, 1, 1, -1, -1, 1, 1, -1, 1, -1, 1, 1, 1, -1, 1, -1, -1, 1, 1, 1, -1, -1, 1, 1, -1, -1, 1, -1, 1, 1, -1, -1, 1, 1, 1, 1, -1, -1, 1, 1, -1, -1, 1, -1, 1, 1, -1, 1, -1, 1, -1, 1, 1, 1, -1, 1, 1, 1, -1, 1, 1, -1, -1, 1, 1, 1, -1, -1, 1, 1, -1, -1, -1, 1, 1, -1, -1, 1, -1, -1, 1, 1, -1, 1, -1, -1, 1, 1, -1, 1, -1, 1, 1, -1, 1, 1, 1, -1, 1, 1, 1, -1, 1, -1, 1, -1, -1, 1, -1, -1, 1, 1, -1, 1, 1, -1, 1, -1, -1, 1, 1, -1, 1, 1, 1, 1, -1, -1, 1, 1, 1, 1, 1, 1, 1, -1, 1, -1, 1, 1, 1, -1, -1, 1, -1, -1, 1, -1, 1, -1, 1, -1, 1, -1, -1, -1, -1, 1, -1, 1, -1, 1, -1, -1, 1, -1, 1, 1, -1, -1, 1, 1, -1, -1, -1, 1, 1, 1, -1, 1, -1, -1, 1, 1, -1, 1, -1, -1, -1, -1, -1, -1, 1, 1, -1, -1, 1, -1, -1, -1, -1, 1, -1, 1, -1, 1, -1, -1, -1, -1, -1, 1, -1, -1, 1, -1, -1, -1, 1, 1, -1, -1, 1, 1, -1, 1, -1, 1, 1, -1, -1, -1, 1, -1, -1, -1, 1, 1, 1, -1, 1, -1, 1, -1, -1, 1, 1, -1, -1, -1, 1, -1, 1, -1, 1, -1, -1, 1, -1, 1, 1, 1, -1, 1, 1, -1, -1, -1, 1, -1, 1, 1, 1, -1, 1, -1, -1, 1, 1, -1, 1, 1, -1, 1, -1, 1, 1, 1, 1, 1, 1, -1, -1, -1, 1, 1, 1, 1, -1, 1, -1, -1, -1, 1, 1, 1, -1, 1, -1, 1, -1, -1, 1, 1, 1, -1, 1, 1, 1, -1, -1, 1, 1, -1, 1, 1, 1, 1, -1, -1, -1, 1, 1, -1, -1, 1, 1, -1, 1, -1, 1, 1, -1, 1, 1, 1, -1, -1, 1, 1, -1, -1, 1, 1, 1, -1, 1, 1, 1, -1, 1, -1, 1, 1, -1, 1, 1, 1, -1, -1, -1, 1, -1, -1, -1, 1, 1, -1, -1, -1, 1, 1, -1, 1, 1, 1, 1, -1, -1, 1, -1, -1, -1, -1, 1, 1, -1, -1, 1, 1, -1, -1, 1, 1, 1, -1, -1, 1, -1, -1, 1, 1, 1, 1, -1, -1, 1, 1, -1, -1, -1, 1, 1, -1, -1, 1, 1, -1, 1, 1, 1, 1, -1, -1, -1, 1, -1, 1, 1, 1, 1, -1, -1, -1, 1, -1, -1, 1, 1, 1, -1, 1, -1, 1, -1, -1, 1, 1, -1, -1, -1, 1, -1, -1, 1, 1, 1, 1, -1, -1, 1, 1, -1, 1, -1, 1, -1, -1, -1, 1, -1, 1, 1, 1, 1, -1, -1, 1, 1, -1, -1, -1, 1, 1, -1, -1, -1, 1, 1, -1, -1, 1, 1, 1, -1, -1, 1, -1, 1, -1, 1, 1, -1, -1, -1, 1, -1, 1, -1, -1, 1, -1, -1, -1, -1, -1, -1, -1, -1, 1, -1, -1, -1, 1, -1, 1, -1, -1, 1, -1, -1, -1, 1, -1, -1, 1, -1, 1, -1, -1, -1, 1, -1, -1, 1, -1, 1, -1, 1, -1, 1, 1, -1, 1, -1, 1, -1, -1, 1, 1, -1, -1, 1, -1, -1, -1, -1, -1, 1, -1, -1, 1, -1, 1, 1, -1, 1, 1, -1, -1, 1, -1, 1, -1, 1, 1, 1, -1, 1, -1, -1, 1, -1, -1, 1, 1, -1, -1, 1, -1, 1, 1, -1, -1, 1, -1, -1, 1, 1, 1, 1, -1, -1, 1, -1, -1, 1, -1, 1, 1, -1, 1, 1, -1, -1, -1, -1, 1, 1, 1, -1, -1, 1, -1, 1, 1, -1, -1, 1, -1, 1, 1, -1, -1, 1, -1, 1, 1, -1, -1, 1, -1, -1, 1, -1, 1, 1, -1, 1, 1, 1, -1, -1, -1, 1, 1, -1, 1, 1, -1, 1, -1, 1, 1, -1, 1, 1, 1, -1, 1, -1, 1, 1, 1, 1, 1, 1, -1, -1, 1, 1, -1, 1, 1, -1, 1, -1, -1, -1, -1, 1, 1, -1, -1, 1, 1, -1, 1, -1, 1, -1, 1, 1, -1, -1, -1, 1, -1, 1, -1, -1, 1, 1, 1, -1, 1, -1, 1, -1, 1, -1, 1, 1, -1, 1, -1, -1, 1, -1, 1, 1, 1, -1, 1, -1, 1, 1, 1, 1, -1, 1, -1, 1, 1, -1, 1, -1, 1, -1, 1, 1, 1, 1, -1, -1, 1, 1, 1, 1, 1, 1, -1, -1, 1, 1, -1, 1, 1, -1, 1, 1, -1, -1, 1, 1, 1, -1, 1, 1, -1, 1, -1, -1, 1, -1, 1, 1, 1, 1, 1, 1, -1, 1, 1, 1, 1, 1, 1, -1, 1, -1, 1, 1, -1, 1, -1, 1, 1, 1, -1, 1, 1, 1, 1, 1, 1, 1, 1, 1, 1, -1, 1, 1, 1, 1, 1, 1, -1, 1, 1, -1, 1, -1, 1, 1, 1, -1, 1, 1, -1, 1, -1, 1, -1, 1, -1, 1, 1, -1, 1, -1, -1, 1, 1, 1, 1, 1, -1, -1, -1, 1, 1, 1, 1, 1, 1, -1, 1, -1, 1, 1, -1, 1, 1, -1, -1, 1, 1, 1, 1, 1, 1, 1, -1, 1, 1, -1, 1, 1, -1, 1, 1, 1, 1, 1, -1, -1, 1, -1, 1, 1, -1, 1, 1, -1, 1, 1, -1, -1, 1, 1, -1, 1, -1, 1, 1, -1, -1, 1, -1, 1, -1, -1, 1, 1, 1, -1, 1, 1, 1, 1, -1, 1, 1, -1, 1, 1, 1, 1, 1, -1, -1, -1, 1, 1, -1, -1, 1, -1, -1, -1, 1, 1, -1, 1, 1, 1, 1, -1, 1, -1, 1, 1, 1, -1, 1, 1, 1, -1, 1, 1, -1, -1, 1, 1, 1
BQP_DATA, 1940, 8869, -4214.000000, -5080.000000, -12012.000000, -12878.000000, 4096.001328, 5670, 1404
